219467
13,46,60,102,3,14,90,78,42,34,74,31,62,6,52,83,32,81,71,44,24,85,45,76,5,39,55,19,15,63,89,16,20,68,87,12,30,64,51,4,54,28,29,97,105,61,21,50,96,98,67,7,18,41,80,49,25,33,82,56,79,88,92,11,22,91,8,1,48,36,38,47,72,53,84,69,93,77,2,100,37,103,66,40,10,94,99,70,35,104,59,95,17,0,26,9,43,58,57,75,27,86,65,23,101,73